
Gurobi 8.1.0 (win64, Python) logging started 11/14/19 10:55:54


Gurobi 8.1.0 (win64) logging started 11/14/19 10:55:55


ERROR 10009: License expired 2019-11-07 - license file 'c:\gurobi810\gurobi.lic'

